10 10
9 66 5 91 4 87 2 94 7 21 3 92 1 7 0 12 8 11 6 19
3 13 2 20 4 7 1 14 9 66 0 75 6 77 5 16 7 95 8 7
8 77 7 20 2 34 0 15 9 88 5 89 6 53 3 6 1 45 4 76
3 27 2 74 6 88 4 62 7 52 8 69 5 9 9 98 0 52 1 88
4 88 6 15 1 52 2 61 7 54 0 62 8 59 5 9 3 90 9 5
6 71 0 41 4 38 3 53 7 91 8 68 1 50 5 78 2 23 9 72
3 95 9 36 6 66 5 52 0 45 8 30 4 23 2 25 7 17 1 6
4 65 1 8 8 85 0 71 7 65 6 28 5 88 3 76 9 27 2 95
9 37 1 37 4 28 3 51 8 86 2 9 6 55 0 73 7 51 5 90
3 39 2 15 6 83 9 44 7 53 0 16 4 46 5 24 1 25 8 82

750 585 754.5 928.5 742.5 877.5 592.5 912 775.5 640.5
4 4 2 2 2 2 2 2 1 1
